ELITE = {E1, E2, E3, E4, E5, E6, E7, E8, E9, E10, E11, E12, E13, E14, E15, E16, E17, E18};
archer = {E1, E2, E3, E4};
cavalry = {E5, E6, E7, E8, E9, E10, E11};
infantry = ELITE diff archer diff cavalry;

liuValue = [2, 5, 6, 8, 9, 5, 8, 7, 7, 4, 6, 1, 2, 5, 6, 4, 8, 3];
guanValue = [9, 8, 4, 7, 6, 4, 5, 3, 5, 5, 7, 5, 8, 3, 9, 2, 4, 6];
zhangValue = [8, 4, 3, 3, 6, 2, 5, 5, 3, 2, 5, 4, 1, 1, 3, 4, 5, 6];